14 15 16 18 19 20 21 22 24 26 27 29 31 32 
13 16 18 19 20 21 22 23 24 26 27 29 33 54 
13 18 19 20 21 22 26 27 30 31 32 65 78 79 
5 9 10 11 12 15 16 18 19 20 21 22 23 
0 1 3 5 9 10 11 12 17 18 19 22 23 
0 1 3 5 9 10 11 12 16 18 19 22 23 
5 9 10 11 12 15 16 18 19 20 21 22 23 
0 1 3 5 9 10 11 12 16 18 19 22 23 
0 1 3 5 9 10 11 12 16 18 19 22 23 
1 13 16 18 19 22 23 24 26 27 29 30 31 
15 18 20 21 22 23 25 27 29 32 33 53 68 
13 16 18 19 20 21 24 26 27 30 31 32 73 
13 18 19 21 26 31 32 65 72 73 75 78 79 
1 3 12 13 16 18 19 22 23 24 26 29 
1 7 11 12 16 18 19 22 23 24 26 27 
3 5 12 16 18 19 20 22 23 26 28 29 
1 3 5 9 10 12 16 18 19 22 23 29 
14 15 18 19 20 21 22 25 29 35 51 53 
14 15 18 19 20 21 25 29 35 51 52 53 
15 18 20 21 25 26 29 32 33 53 57 58 
15 18 20 21 25 26 29 32 33 53 57 58 
13 18 19 25 26 27 30 31 32 73 76 78 
0 1 2 3 5 9 10 11 12 16 18 
0 1 2 3 5 9 10 11 12 16 18 
0 1 3 9 12 16 18 19 22 23 25 
15 18 20 21 22 23 24 27 38 53 69 
15 18 21 22 23 25 26 27 33 46 53 
14 15 16 18 19 20 21 22 25 29 51 
15 20 21 29 33 48 55 57 63 68 69 
1 13 16 18 19 22 26 27 30 31 65 
13 17 18 20 21 22 23 25 29 33 69 
15 18 19 20 21 22 25 27 29 53 70 
1 13 18 19 22 24 26 27 30 31 78 
14 18 20 21 26 31 32 65 78 79 80 
0 1 2 3 4 9 10 11 12 16 
0 1 2 3 4 9 10 11 12 16 
0 1 2 3 4 9 10 11 12 16 
0 1 2 3 4 9 10 11 12 16 
0 1 2 3 4 9 10 11 12 16 
0 1 2 3 6 9 10 11 12 16 
0 1 2 3 4 9 10 11 12 16 
0 1 2 3 4 9 10 11 12 16 
0 1 2 3 4 9 10 11 12 16 
0 1 2 3 4 9 10 11 12 16 
0 1 2 3 4 9 10 11 12 16 
0 2 3 4 9 10 11 12 16 20 
3 9 11 16 18 19 20 22 23 32 
1 5 9 11 16 18 19 22 23 33 
15 20 22 24 34 38 39 53 55 69 
15 18 19 21 22 24 26 33 36 53 
13 18 20 21 22 23 40 53 54 69 
15 18 22 23 24 26 27 33 43 53 
14 20 21 22 24 26 27 29 50 53 
12 15 18 20 21 22 24 26 29 55 
10 15 16 18 19 21 22 23 29 56 
15 18 19 20 21 26 29 31 32 59 
17 18 22 23 28 29 33 67 68 69 
0 1 3 7 8 9 10 11 12 
0 1 2 3 8 9 10 11 12 
1 2 3 10 11 12 16 18 24 
0 1 2 3 4 11 12 16 26 
1 9 11 16 18 19 22 23 31 
19 20 21 24 26 29 41 53 54 
34 36 38 39 40 42 53 55 68 
0 11 16 19 20 22 23 26 48 
15 28 43 44 49 66 68 69 71 
10 15 16 18 19 21 22 56 72 
11 15 16 21 23 24 44 48 
15 25 28 33 45 47 68 69 
19 20 21 26 29 32 53 60 
15 19 20 21 26 32 53 61 
20 21 37 38 40 64 69 70 
2 18 20 26 37 39 53 
2 18 20 24 26 39 53 
15 16 19 22 28 33 49 
13 21 29 33 53 62 69 
1 10 16 19 22 24 77 
10 15 18 21 72 74 
0 22 23 25 45 
2 9 18 20 53 
11 15 44 48 71 
14